# Objective value = 3.6984800000000005e+03
I_0_0 674
I_0_1 8.2599999999999909e+02
I_0_2 7.3999999999999955e+02
I_0_3 1.0439999999999995e+03
I_1_0 87
I_1_1 1.0096611047227810e-13
I_1_2 8.7000000000000014e+01
I_1_3 0
I_2_0 86
I_2_1 8.6000000000000014e+01
I_2_2 86.0000000000001
I_2_3 1.0857981180834031e-13
I_3_0 65
I_3_1 5.9986737799277989e-13
I_3_2 65
I_3_3 0
I_4_0 106
I_4_1 1.0600000000000006e+02
I_4_2 5.3000000000000071e+01
I_4_3 -1.9007018181582680e-13
I_5_0 26
I_5_1 26
I_5_2 13
I_5_3 0
q_1_0_0 0
q_1_0_1 1.7400000000000006e+02
q_1_0_2 0
q_1_1_0 1.0096611047227810e-13
q_1_1_1 0
q_1_1_2 0
q_2_0_0 8.6000000000000014e+01
q_2_0_1 0
q_2_0_2 1.0857981180834031e-13
q_2_1_0 0
q_2_1_1 8.5999999999999972e+01
q_2_1_2 0
q_3_0_0 5.9986737799277989e-13
q_3_0_1 5.9507954119908391e-13
q_3_0_2 0
q_3_1_0 0
q_3_1_1 1.2999999999999903e+02
q_3_1_2 0
q_4_0_0 53
q_4_0_1 0
q_4_0_2 -2.5135449277513544e-13
q_4_1_0 6.1691970976163191e-14
q_4_1_1 0
q_4_1_2 0
q_5_0_0 13
q_5_0_1 0
q_5_0_2 0
q_5_1_0 0
q_5_1_1 0
q_5_1_2 0
y_0_0_0 1
y_0_0_1 1
y_0_0_2 0
y_0_1_0 0
y_0_1_1 1
y_0_1_2 0
y_1_0_0 0
y_1_0_1 1
y_1_0_2 0
y_1_1_0 1.1605300054284839e-15
y_1_1_1 0
y_1_1_2 0
y_2_0_0 1.0000000000000002e+00
y_2_0_1 0
y_2_0_2 0
y_2_1_0 0
y_2_1_1 1
y_2_1_2 1.1587952819525071e-15
y_3_0_0 9.2287288921966137e-15
y_3_0_1 -3.3861802251067274e-15
y_3_0_2 0
y_3_1_0 0
y_3_1_1 1.0000000000000031e+00
y_3_1_2 0
y_4_0_0 1
y_4_0_1 0
y_4_0_2 0
y_4_1_0 1.1639994523804376e-15
y_4_1_1 0
y_4_1_2 -1.1587952819525071e-15
y_5_0_0 1
y_5_0_1 0
y_5_0_2 0
y_5_1_0 0
y_5_1_1 0
y_5_1_2 0
x_0_1_0_0 0
x_0_1_0_1 2.0000000000000036e+00
x_0_1_0_2 0
x_0_1_1_0 0
x_0_1_1_1 0
x_0_1_1_2 0
x_0_2_0_0 1.0000000000000002e+00
x_0_2_0_1 0
x_0_2_0_2 0
x_0_2_1_0 0
x_0_2_1_1 9.9999999999999933e-01
x_0_2_1_2 2.3175905639050143e-15
x_0_3_0_0 9.2287288921966137e-15
x_0_3_0_1 8.8956619848090668e-15
x_0_3_0_2 0
x_0_3_1_0 0
x_0_3_1_1 1.0000000000000007e+00
x_0_3_1_2 0
x_0_4_0_0 0
x_0_4_0_1 0
x_0_4_0_2 0
x_0_4_1_0 0
x_0_4_1_1 0
x_0_4_1_2 -2.3175905639050143e-15
x_0_5_0_0 9.9999999999999067e-01
x_0_5_0_1 0
x_0_5_0_2 0
x_0_5_1_0 0
x_0_5_1_1 0
x_0_5_1_2 0
x_1_2_0_0 0
x_1_2_0_1 0
x_1_2_0_2 0
x_1_2_1_0 0
x_1_2_1_1 0
x_1_2_1_2 0
x_1_3_0_0 0
x_1_3_0_1 -3.3445468616832841e-15
x_1_3_0_2 0
x_1_3_1_0 0
x_1_3_1_1 0
x_1_3_1_2 0
x_1_4_0_0 0
x_1_4_0_1 0
x_1_4_0_2 0
x_1_4_1_0 2.3210600108569679e-15
x_1_4_1_1 0
x_1_4_1_2 0
x_1_5_0_0 0
x_1_5_0_1 0
x_1_5_0_2 0
x_1_5_1_0 0
x_1_5_1_1 0
x_1_5_1_2 0
x_2_3_0_0 0
x_2_3_0_1 0
x_2_3_0_2 0
x_2_3_1_0 0
x_2_3_1_1 1
x_2_3_1_2 0
x_2_4_0_0 1
x_2_4_0_1 0
x_2_4_0_2 0
x_2_4_1_0 0
x_2_4_1_1 0
x_2_4_1_2 0
x_2_5_0_0 0
x_2_5_0_1 0
x_2_5_0_2 0
x_2_5_1_0 0
x_2_5_1_1 0
x_2_5_1_2 0
x_3_4_0_0 0
x_3_4_0_1 0
x_3_4_0_2 0
x_3_4_1_0 0
x_3_4_1_1 0
x_3_4_1_2 0
x_3_5_0_0 9.2287288921966137e-15
x_3_5_0_1 0
x_3_5_0_2 0
x_3_5_1_0 0
x_3_5_1_1 0
x_3_5_1_2 0
x_4_5_0_0 1
x_4_5_0_1 0
x_4_5_0_2 0
x_4_5_1_0 0
x_4_5_1_1 0
x_4_5_1_2 0
